
Gurobi 11.0.1 (win64) logging started Wed Mar 13 20:00:52 2024

Set parameter LogFile to value "C:\Projetos\Job_Rotation_Algorithms\Outputs\GurobiLogs\gurobi_log-output-37_ros-c28-CostaMirallesModel-NoExtraConstraint-2.log"
Gurobi Optimizer version 11.0.1 build v11.0.1rc0 (win64 - Windows 10.0 (19045.2))

CPU model: 11th Gen Intel(R) Core(TM) i7-1165G7 @ 2.80GHz, instruction set [SSE2|AVX|AVX2|AVX512]
Thread count: 4 physical cores, 8 logical processors, using up to 1 threads


Gurobi 11.0.1 (win64) logging started Thu Mar 14 07:59:09 2024

Set parameter LogFile to value "C:\Projetos\Job_Rotation_Algorithms\Outputs\GurobiLogs\gurobi_log-output-37_ros-c28-CostaMirallesModel-NoExtraConstraint-2.log"
Gurobi Optimizer version 11.0.1 build v11.0.1rc0 (win64 - Windows 10.0 (19045.2))

CPU model: 11th Gen Intel(R) Core(TM) i7-1165G7 @ 2.80GHz, instruction set [SSE2|AVX|AVX2|AVX512]
Thread count: 4 physical cores, 8 logical processors, using up to 1 threads


Gurobi 11.0.1 (win64) logging started Fri Mar 15 00:36:36 2024

Set parameter LogFile to value "C:\Projetos\Job_Rotation_Algorithms\Outputs\GurobiLogs\gurobi_log-output-37_ros-c28-CostaMirallesModel-NoExtraConstraint-2.log"
Gurobi Optimizer version 11.0.1 build v11.0.1rc0 (win64 - Windows 10.0 (19045.2))

CPU model: 11th Gen Intel(R) Core(TM) i7-1165G7 @ 2.80GHz, instruction set [SSE2|AVX|AVX2|AVX512]
Thread count: 4 physical cores, 8 logical processors, using up to 1 threads


Gurobi 11.0.1 (win64) logging started Fri Mar 15 08:42:26 2024

Set parameter LogFile to value "C:\Projetos\Job_Rotation_Algorithms\Outputs\GurobiLogs\gurobi_log-output-37_ros-c28-CostaMirallesModel-NoExtraConstraint-2.log"
Gurobi Optimizer version 11.0.1 build v11.0.1rc0 (win64 - Windows 10.0 (19045.2))

CPU model: 11th Gen Intel(R) Core(TM) i7-1165G7 @ 2.80GHz, instruction set [SSE2|AVX|AVX2|AVX512]
Thread count: 4 physical cores, 8 logical processors, using up to 1 threads

WLS license 901039 - registered to Bitka Analytics
Optimize a model with 425 rows, 880 columns and 6876 nonzeros
Model fingerprint: 0x7fdcc396
Variable types: 2 continuous, 878 integer (878 binary)
Coefficient statistics:
  Matrix range     [1e+00, 3e+01]
  Objective range  [1e+00, 1e+00]
  Bounds range     [1e+00, 6e+01]
  RHS range        [1e+00, 6e+01]
Presolve removed 49 rows and 139 columns
Presolve time: 0.03s
Presolved: 376 rows, 741 columns, 5352 nonzeros
Variable types: 0 continuous, 741 integer (740 binary)

Root relaxation: objective 5.000000e+01, 480 iterations, 0.00 seconds (0.01 work units)

    Nodes    |    Current Node    |     Objective Bounds      |     Work
 Expl Unexpl |  Obj  Depth IntInf | Incumbent    BestBd   Gap | It/Node Time

     0     0   50.00000    0   12          -   50.00000      -     -    0s
     0     0   50.00000    0  146          -   50.00000      -     -    0s
     0     0   50.00000    0  145          -   50.00000      -     -    0s
     0     0   50.00000    0   66          -   50.00000      -     -    0s
     0     0   50.00000    0   76          -   50.00000      -     -    0s
     0     0   50.00000    0   19          -   50.00000      -     -    0s
     0     0   50.00000    0   19          -   50.00000      -     -    0s
     0     2   50.00000    0   19          -   50.00000      -     -    0s
*  488   142              42      47.0000000   50.00000  6.38%  38.7    0s
*  626     3              23      50.0000000   50.00000  0.00%  39.6    1s

Cutting planes:
  Cover: 328
  Implied bound: 3
  Clique: 55
  MIR: 32
  StrongCG: 10
  GUB cover: 7
  Inf proof: 3
  Zero half: 4
  RLT: 8

Explored 627 nodes (29813 simplex iterations) in 1.11 seconds (1.04 work units)
Thread count was 1 (of 8 available processors)

Solution count 2: 50 47 

Optimal solution found (tolerance 1.00e-03)
Best objective 5.000000000000e+01, best bound 5.000000000000e+01, gap 0.0000%
